; 
(set-info :status unknown)
(declare-fun standard_metadata.ingress_port () (_ BitVec 9))
(declare-fun standard_metadata.egress_spec () (_ BitVec 9))
(declare-fun ipv4.dstAddr () (_ BitVec 32))
(declare-fun ipv4.$valid$ () Bool)
(assert
 (let (($x145 (= standard_metadata.ingress_port (_ bv1 9))))
 (or (or false (= standard_metadata.ingress_port (_ bv0 9))) $x145)))
(assert
 (let (($x54 (= ipv4.dstAddr (_ bv168427520 32))))
 (let (($x55 (and true $x54)))
 (let (($x70 (not $x55)))
 (let (($x74 (and $x70 (not (and true (= ((_ extract 31 16) ipv4.dstAddr) ((_ extract 31 16) (_ bv168427520 32))))))))
 (let (($x78 (and $x74 (not (and true (= ((_ extract 31 16) ipv4.dstAddr) ((_ extract 31 16) (_ bv336855040 32))))))))
 (let (($x82 (and $x78 (not (and true (= ((_ extract 31 24) ipv4.dstAddr) ((_ extract 31 24) (_ bv167772160 32))))))))
 (let (($x51 (and (not false) ipv4.$valid$)))
 (let (($x83 (and $x51 $x82)))
 (let ((?x97 (concat (_ bv0 8) (_ bv1 1))))
 (let (($x68 (and true (= ((_ extract 31 24) ipv4.dstAddr) ((_ extract 31 24) (_ bv167772160 32))))))
 (let (($x80 (and (and $x51 $x78) $x68)))
 (let (($x63 (and true (= ((_ extract 31 16) ipv4.dstAddr) ((_ extract 31 16) (_ bv336855040 32))))))
 (let (($x76 (and (and $x51 $x74) $x63)))
 (let ((?x110 (ite $x76 ?x97 (ite $x80 ?x97 (ite $x83 (_ bv455 9) standard_metadata.egress_spec)))))
 (let (($x59 (and true (= ((_ extract 31 16) ipv4.dstAddr) ((_ extract 31 16) (_ bv168427520 32))))))
 (let (($x72 (and (and $x51 $x70) $x59)))
 (let (($x69 (and $x51 $x55)))
 (let ((?x132 (ite $x69 ?x97 (ite $x72 (concat (_ bv0 8) (_ bv0 1)) ?x110))))
 (or (or (= ?x132 (_ bv455 9)) (= ?x132 (_ bv0 9))) (= ?x132 (_ bv1 9))))))))))))))))))))))
(assert
 (let (($x68 (and true (= ((_ extract 31 24) ipv4.dstAddr) ((_ extract 31 24) (_ bv167772160 32))))))
 (let (($x51 (and (not false) ipv4.$valid$)))
 (let ((?x108 (ite (and $x51 (and true (= ((_ extract 31 16) ipv4.dstAddr) ((_ extract 31 16) (_ bv336855040 32))))) 3 (ite (and $x51 $x68) 2 (- 1)))))
 (let ((?x120 (ite (and $x51 (and true (= ((_ extract 31 16) ipv4.dstAddr) ((_ extract 31 16) (_ bv168427520 32))))) 0 ?x108)))
 (let (($x54 (= ipv4.dstAddr (_ bv168427520 32))))
 (let (($x55 (and true $x54)))
 (let (($x69 (and $x51 $x55)))
 (let ((?x139 (ite ipv4.$valid$ (ite $x69 1 ?x120) (- 1))))
 (let (($x138 (ite ipv4.$valid$ $x51 false)))
 (let (($x70 (not $x55)))
 (let (($x74 (and $x70 (not (and true (= ((_ extract 31 16) ipv4.dstAddr) ((_ extract 31 16) (_ bv168427520 32))))))))
 (let (($x78 (and $x74 (not (and true (= ((_ extract 31 16) ipv4.dstAddr) ((_ extract 31 16) (_ bv336855040 32))))))))
 (let (($x83 (and $x51 (and $x78 (not $x68)))))
 (let ((?x97 (concat (_ bv0 8) (_ bv1 1))))
 (let (($x80 (and (and $x51 $x78) $x68)))
 (let (($x63 (and true (= ((_ extract 31 16) ipv4.dstAddr) ((_ extract 31 16) (_ bv336855040 32))))))
 (let (($x76 (and (and $x51 $x74) $x63)))
 (let ((?x110 (ite $x76 ?x97 (ite $x80 ?x97 (ite $x83 (_ bv455 9) standard_metadata.egress_spec)))))
 (let (($x59 (and true (= ((_ extract 31 16) ipv4.dstAddr) ((_ extract 31 16) (_ bv168427520 32))))))
 (let (($x72 (and (and $x51 $x70) $x59)))
 (let ((?x132 (ite $x69 ?x97 (ite $x72 (concat (_ bv0 8) (_ bv0 1)) ?x110))))
 (let (($x50 (= ?x132 (_ bv455 9))))
 (and (and (not $x50) $x138) (= ?x139 (- 1))))))))))))))))))))))))))
(check-sat)

; 
(set-info :status unknown)
(declare-fun standard_metadata.ingress_port () (_ BitVec 9))
(declare-fun standard_metadata.egress_spec () (_ BitVec 9))
(declare-fun ipv4.dstAddr () (_ BitVec 32))
(declare-fun ipv4.$valid$ () Bool)
(assert
 (let (($x145 (= standard_metadata.ingress_port (_ bv1 9))))
 (or (or false (= standard_metadata.ingress_port (_ bv0 9))) $x145)))
(assert
 (let (($x54 (= ipv4.dstAddr (_ bv168427520 32))))
 (let (($x55 (and true $x54)))
 (let (($x70 (not $x55)))
 (let (($x74 (and $x70 (not (and true (= ((_ extract 31 16) ipv4.dstAddr) ((_ extract 31 16) (_ bv168427520 32))))))))
 (let (($x78 (and $x74 (not (and true (= ((_ extract 31 16) ipv4.dstAddr) ((_ extract 31 16) (_ bv336855040 32))))))))
 (let (($x82 (and $x78 (not (and true (= ((_ extract 31 24) ipv4.dstAddr) ((_ extract 31 24) (_ bv167772160 32))))))))
 (let (($x51 (and (not false) ipv4.$valid$)))
 (let (($x83 (and $x51 $x82)))
 (let ((?x97 (concat (_ bv0 8) (_ bv1 1))))
 (let (($x68 (and true (= ((_ extract 31 24) ipv4.dstAddr) ((_ extract 31 24) (_ bv167772160 32))))))
 (let (($x80 (and (and $x51 $x78) $x68)))
 (let (($x63 (and true (= ((_ extract 31 16) ipv4.dstAddr) ((_ extract 31 16) (_ bv336855040 32))))))
 (let (($x76 (and (and $x51 $x74) $x63)))
 (let ((?x110 (ite $x76 ?x97 (ite $x80 ?x97 (ite $x83 (_ bv455 9) standard_metadata.egress_spec)))))
 (let (($x59 (and true (= ((_ extract 31 16) ipv4.dstAddr) ((_ extract 31 16) (_ bv168427520 32))))))
 (let (($x72 (and (and $x51 $x70) $x59)))
 (let (($x69 (and $x51 $x55)))
 (let ((?x132 (ite $x69 ?x97 (ite $x72 (concat (_ bv0 8) (_ bv0 1)) ?x110))))
 (or (or (= ?x132 (_ bv455 9)) (= ?x132 (_ bv0 9))) (= ?x132 (_ bv1 9))))))))))))))))))))))
(assert
 (let (($x68 (and true (= ((_ extract 31 24) ipv4.dstAddr) ((_ extract 31 24) (_ bv167772160 32))))))
 (let (($x51 (and (not false) ipv4.$valid$)))
 (let ((?x108 (ite (and $x51 (and true (= ((_ extract 31 16) ipv4.dstAddr) ((_ extract 31 16) (_ bv336855040 32))))) 3 (ite (and $x51 $x68) 2 (- 1)))))
 (let ((?x120 (ite (and $x51 (and true (= ((_ extract 31 16) ipv4.dstAddr) ((_ extract 31 16) (_ bv168427520 32))))) 0 ?x108)))
 (let (($x54 (= ipv4.dstAddr (_ bv168427520 32))))
 (let (($x55 (and true $x54)))
 (let (($x69 (and $x51 $x55)))
 (let ((?x139 (ite ipv4.$valid$ (ite $x69 1 ?x120) (- 1))))
 (let (($x138 (ite ipv4.$valid$ $x51 false)))
 (let (($x70 (not $x55)))
 (let (($x74 (and $x70 (not (and true (= ((_ extract 31 16) ipv4.dstAddr) ((_ extract 31 16) (_ bv168427520 32))))))))
 (let (($x78 (and $x74 (not (and true (= ((_ extract 31 16) ipv4.dstAddr) ((_ extract 31 16) (_ bv336855040 32))))))))
 (let (($x83 (and $x51 (and $x78 (not $x68)))))
 (let ((?x97 (concat (_ bv0 8) (_ bv1 1))))
 (let (($x80 (and (and $x51 $x78) $x68)))
 (let (($x63 (and true (= ((_ extract 31 16) ipv4.dstAddr) ((_ extract 31 16) (_ bv336855040 32))))))
 (let (($x76 (and (and $x51 $x74) $x63)))
 (let ((?x110 (ite $x76 ?x97 (ite $x80 ?x97 (ite $x83 (_ bv455 9) standard_metadata.egress_spec)))))
 (let (($x59 (and true (= ((_ extract 31 16) ipv4.dstAddr) ((_ extract 31 16) (_ bv168427520 32))))))
 (let (($x72 (and (and $x51 $x70) $x59)))
 (let ((?x132 (ite $x69 ?x97 (ite $x72 (concat (_ bv0 8) (_ bv0 1)) ?x110))))
 (let (($x50 (= ?x132 (_ bv455 9))))
 (let (($x252 (and (not $x50) $x138)))
 (and $x252 (= ?x139 0))))))))))))))))))))))))))
(check-sat)

; 
(set-info :status unknown)
(declare-fun standard_metadata.ingress_port () (_ BitVec 9))
(declare-fun standard_metadata.egress_spec () (_ BitVec 9))
(declare-fun ipv4.dstAddr () (_ BitVec 32))
(declare-fun ipv4.$valid$ () Bool)
(assert
 (let (($x145 (= standard_metadata.ingress_port (_ bv1 9))))
 (or (or false (= standard_metadata.ingress_port (_ bv0 9))) $x145)))
(assert
 (let (($x54 (= ipv4.dstAddr (_ bv168427520 32))))
 (let (($x55 (and true $x54)))
 (let (($x70 (not $x55)))
 (let (($x74 (and $x70 (not (and true (= ((_ extract 31 16) ipv4.dstAddr) ((_ extract 31 16) (_ bv168427520 32))))))))
 (let (($x78 (and $x74 (not (and true (= ((_ extract 31 16) ipv4.dstAddr) ((_ extract 31 16) (_ bv336855040 32))))))))
 (let (($x82 (and $x78 (not (and true (= ((_ extract 31 24) ipv4.dstAddr) ((_ extract 31 24) (_ bv167772160 32))))))))
 (let (($x51 (and (not false) ipv4.$valid$)))
 (let (($x83 (and $x51 $x82)))
 (let ((?x97 (concat (_ bv0 8) (_ bv1 1))))
 (let (($x68 (and true (= ((_ extract 31 24) ipv4.dstAddr) ((_ extract 31 24) (_ bv167772160 32))))))
 (let (($x80 (and (and $x51 $x78) $x68)))
 (let (($x63 (and true (= ((_ extract 31 16) ipv4.dstAddr) ((_ extract 31 16) (_ bv336855040 32))))))
 (let (($x76 (and (and $x51 $x74) $x63)))
 (let ((?x110 (ite $x76 ?x97 (ite $x80 ?x97 (ite $x83 (_ bv455 9) standard_metadata.egress_spec)))))
 (let (($x59 (and true (= ((_ extract 31 16) ipv4.dstAddr) ((_ extract 31 16) (_ bv168427520 32))))))
 (let (($x72 (and (and $x51 $x70) $x59)))
 (let (($x69 (and $x51 $x55)))
 (let ((?x132 (ite $x69 ?x97 (ite $x72 (concat (_ bv0 8) (_ bv0 1)) ?x110))))
 (or (or (= ?x132 (_ bv455 9)) (= ?x132 (_ bv0 9))) (= ?x132 (_ bv1 9))))))))))))))))))))))
(assert
 (let (($x68 (and true (= ((_ extract 31 24) ipv4.dstAddr) ((_ extract 31 24) (_ bv167772160 32))))))
 (let (($x51 (and (not false) ipv4.$valid$)))
 (let ((?x108 (ite (and $x51 (and true (= ((_ extract 31 16) ipv4.dstAddr) ((_ extract 31 16) (_ bv336855040 32))))) 3 (ite (and $x51 $x68) 2 (- 1)))))
 (let ((?x120 (ite (and $x51 (and true (= ((_ extract 31 16) ipv4.dstAddr) ((_ extract 31 16) (_ bv168427520 32))))) 0 ?x108)))
 (let (($x54 (= ipv4.dstAddr (_ bv168427520 32))))
 (let (($x55 (and true $x54)))
 (let (($x69 (and $x51 $x55)))
 (let ((?x139 (ite ipv4.$valid$ (ite $x69 1 ?x120) (- 1))))
 (let (($x138 (ite ipv4.$valid$ $x51 false)))
 (let (($x70 (not $x55)))
 (let (($x74 (and $x70 (not (and true (= ((_ extract 31 16) ipv4.dstAddr) ((_ extract 31 16) (_ bv168427520 32))))))))
 (let (($x78 (and $x74 (not (and true (= ((_ extract 31 16) ipv4.dstAddr) ((_ extract 31 16) (_ bv336855040 32))))))))
 (let (($x83 (and $x51 (and $x78 (not $x68)))))
 (let ((?x97 (concat (_ bv0 8) (_ bv1 1))))
 (let (($x80 (and (and $x51 $x78) $x68)))
 (let (($x63 (and true (= ((_ extract 31 16) ipv4.dstAddr) ((_ extract 31 16) (_ bv336855040 32))))))
 (let (($x76 (and (and $x51 $x74) $x63)))
 (let ((?x110 (ite $x76 ?x97 (ite $x80 ?x97 (ite $x83 (_ bv455 9) standard_metadata.egress_spec)))))
 (let (($x59 (and true (= ((_ extract 31 16) ipv4.dstAddr) ((_ extract 31 16) (_ bv168427520 32))))))
 (let (($x72 (and (and $x51 $x70) $x59)))
 (let ((?x132 (ite $x69 ?x97 (ite $x72 (concat (_ bv0 8) (_ bv0 1)) ?x110))))
 (let (($x50 (= ?x132 (_ bv455 9))))
 (and (and (not $x50) $x138) (= ?x139 1)))))))))))))))))))))))))
(check-sat)

; 
(set-info :status unknown)
(declare-fun standard_metadata.ingress_port () (_ BitVec 9))
(declare-fun standard_metadata.egress_spec () (_ BitVec 9))
(declare-fun ipv4.dstAddr () (_ BitVec 32))
(declare-fun ipv4.$valid$ () Bool)
(assert
 (let (($x145 (= standard_metadata.ingress_port (_ bv1 9))))
 (or (or false (= standard_metadata.ingress_port (_ bv0 9))) $x145)))
(assert
 (let (($x54 (= ipv4.dstAddr (_ bv168427520 32))))
 (let (($x55 (and true $x54)))
 (let (($x70 (not $x55)))
 (let (($x74 (and $x70 (not (and true (= ((_ extract 31 16) ipv4.dstAddr) ((_ extract 31 16) (_ bv168427520 32))))))))
 (let (($x78 (and $x74 (not (and true (= ((_ extract 31 16) ipv4.dstAddr) ((_ extract 31 16) (_ bv336855040 32))))))))
 (let (($x82 (and $x78 (not (and true (= ((_ extract 31 24) ipv4.dstAddr) ((_ extract 31 24) (_ bv167772160 32))))))))
 (let (($x51 (and (not false) ipv4.$valid$)))
 (let (($x83 (and $x51 $x82)))
 (let ((?x97 (concat (_ bv0 8) (_ bv1 1))))
 (let (($x68 (and true (= ((_ extract 31 24) ipv4.dstAddr) ((_ extract 31 24) (_ bv167772160 32))))))
 (let (($x80 (and (and $x51 $x78) $x68)))
 (let (($x63 (and true (= ((_ extract 31 16) ipv4.dstAddr) ((_ extract 31 16) (_ bv336855040 32))))))
 (let (($x76 (and (and $x51 $x74) $x63)))
 (let ((?x110 (ite $x76 ?x97 (ite $x80 ?x97 (ite $x83 (_ bv455 9) standard_metadata.egress_spec)))))
 (let (($x59 (and true (= ((_ extract 31 16) ipv4.dstAddr) ((_ extract 31 16) (_ bv168427520 32))))))
 (let (($x72 (and (and $x51 $x70) $x59)))
 (let (($x69 (and $x51 $x55)))
 (let ((?x132 (ite $x69 ?x97 (ite $x72 (concat (_ bv0 8) (_ bv0 1)) ?x110))))
 (or (or (= ?x132 (_ bv455 9)) (= ?x132 (_ bv0 9))) (= ?x132 (_ bv1 9))))))))))))))))))))))
(assert
 (let (($x68 (and true (= ((_ extract 31 24) ipv4.dstAddr) ((_ extract 31 24) (_ bv167772160 32))))))
 (let (($x51 (and (not false) ipv4.$valid$)))
 (let ((?x108 (ite (and $x51 (and true (= ((_ extract 31 16) ipv4.dstAddr) ((_ extract 31 16) (_ bv336855040 32))))) 3 (ite (and $x51 $x68) 2 (- 1)))))
 (let ((?x120 (ite (and $x51 (and true (= ((_ extract 31 16) ipv4.dstAddr) ((_ extract 31 16) (_ bv168427520 32))))) 0 ?x108)))
 (let (($x54 (= ipv4.dstAddr (_ bv168427520 32))))
 (let (($x55 (and true $x54)))
 (let (($x69 (and $x51 $x55)))
 (let ((?x139 (ite ipv4.$valid$ (ite $x69 1 ?x120) (- 1))))
 (let (($x138 (ite ipv4.$valid$ $x51 false)))
 (let (($x70 (not $x55)))
 (let (($x74 (and $x70 (not (and true (= ((_ extract 31 16) ipv4.dstAddr) ((_ extract 31 16) (_ bv168427520 32))))))))
 (let (($x78 (and $x74 (not (and true (= ((_ extract 31 16) ipv4.dstAddr) ((_ extract 31 16) (_ bv336855040 32))))))))
 (let (($x83 (and $x51 (and $x78 (not $x68)))))
 (let ((?x97 (concat (_ bv0 8) (_ bv1 1))))
 (let (($x80 (and (and $x51 $x78) $x68)))
 (let (($x63 (and true (= ((_ extract 31 16) ipv4.dstAddr) ((_ extract 31 16) (_ bv336855040 32))))))
 (let (($x76 (and (and $x51 $x74) $x63)))
 (let ((?x110 (ite $x76 ?x97 (ite $x80 ?x97 (ite $x83 (_ bv455 9) standard_metadata.egress_spec)))))
 (let (($x59 (and true (= ((_ extract 31 16) ipv4.dstAddr) ((_ extract 31 16) (_ bv168427520 32))))))
 (let (($x72 (and (and $x51 $x70) $x59)))
 (let ((?x132 (ite $x69 ?x97 (ite $x72 (concat (_ bv0 8) (_ bv0 1)) ?x110))))
 (let (($x50 (= ?x132 (_ bv455 9))))
 (and (and (not $x50) $x138) (= ?x139 2)))))))))))))))))))))))))
(check-sat)

; 
(set-info :status unknown)
(declare-fun standard_metadata.ingress_port () (_ BitVec 9))
(declare-fun standard_metadata.egress_spec () (_ BitVec 9))
(declare-fun ipv4.dstAddr () (_ BitVec 32))
(declare-fun ipv4.$valid$ () Bool)
(assert
 (let (($x145 (= standard_metadata.ingress_port (_ bv1 9))))
 (or (or false (= standard_metadata.ingress_port (_ bv0 9))) $x145)))
(assert
 (let (($x54 (= ipv4.dstAddr (_ bv168427520 32))))
 (let (($x55 (and true $x54)))
 (let (($x70 (not $x55)))
 (let (($x74 (and $x70 (not (and true (= ((_ extract 31 16) ipv4.dstAddr) ((_ extract 31 16) (_ bv168427520 32))))))))
 (let (($x78 (and $x74 (not (and true (= ((_ extract 31 16) ipv4.dstAddr) ((_ extract 31 16) (_ bv336855040 32))))))))
 (let (($x82 (and $x78 (not (and true (= ((_ extract 31 24) ipv4.dstAddr) ((_ extract 31 24) (_ bv167772160 32))))))))
 (let (($x51 (and (not false) ipv4.$valid$)))
 (let (($x83 (and $x51 $x82)))
 (let ((?x97 (concat (_ bv0 8) (_ bv1 1))))
 (let (($x68 (and true (= ((_ extract 31 24) ipv4.dstAddr) ((_ extract 31 24) (_ bv167772160 32))))))
 (let (($x80 (and (and $x51 $x78) $x68)))
 (let (($x63 (and true (= ((_ extract 31 16) ipv4.dstAddr) ((_ extract 31 16) (_ bv336855040 32))))))
 (let (($x76 (and (and $x51 $x74) $x63)))
 (let ((?x110 (ite $x76 ?x97 (ite $x80 ?x97 (ite $x83 (_ bv455 9) standard_metadata.egress_spec)))))
 (let (($x59 (and true (= ((_ extract 31 16) ipv4.dstAddr) ((_ extract 31 16) (_ bv168427520 32))))))
 (let (($x72 (and (and $x51 $x70) $x59)))
 (let (($x69 (and $x51 $x55)))
 (let ((?x132 (ite $x69 ?x97 (ite $x72 (concat (_ bv0 8) (_ bv0 1)) ?x110))))
 (or (or (= ?x132 (_ bv455 9)) (= ?x132 (_ bv0 9))) (= ?x132 (_ bv1 9))))))))))))))))))))))
(assert
 (let (($x68 (and true (= ((_ extract 31 24) ipv4.dstAddr) ((_ extract 31 24) (_ bv167772160 32))))))
 (let (($x51 (and (not false) ipv4.$valid$)))
 (let ((?x108 (ite (and $x51 (and true (= ((_ extract 31 16) ipv4.dstAddr) ((_ extract 31 16) (_ bv336855040 32))))) 3 (ite (and $x51 $x68) 2 (- 1)))))
 (let ((?x120 (ite (and $x51 (and true (= ((_ extract 31 16) ipv4.dstAddr) ((_ extract 31 16) (_ bv168427520 32))))) 0 ?x108)))
 (let (($x54 (= ipv4.dstAddr (_ bv168427520 32))))
 (let (($x55 (and true $x54)))
 (let (($x69 (and $x51 $x55)))
 (let ((?x139 (ite ipv4.$valid$ (ite $x69 1 ?x120) (- 1))))
 (let (($x138 (ite ipv4.$valid$ $x51 false)))
 (let (($x70 (not $x55)))
 (let (($x74 (and $x70 (not (and true (= ((_ extract 31 16) ipv4.dstAddr) ((_ extract 31 16) (_ bv168427520 32))))))))
 (let (($x78 (and $x74 (not (and true (= ((_ extract 31 16) ipv4.dstAddr) ((_ extract 31 16) (_ bv336855040 32))))))))
 (let (($x83 (and $x51 (and $x78 (not $x68)))))
 (let ((?x97 (concat (_ bv0 8) (_ bv1 1))))
 (let (($x80 (and (and $x51 $x78) $x68)))
 (let (($x63 (and true (= ((_ extract 31 16) ipv4.dstAddr) ((_ extract 31 16) (_ bv336855040 32))))))
 (let (($x76 (and (and $x51 $x74) $x63)))
 (let ((?x110 (ite $x76 ?x97 (ite $x80 ?x97 (ite $x83 (_ bv455 9) standard_metadata.egress_spec)))))
 (let (($x59 (and true (= ((_ extract 31 16) ipv4.dstAddr) ((_ extract 31 16) (_ bv168427520 32))))))
 (let (($x72 (and (and $x51 $x70) $x59)))
 (let ((?x132 (ite $x69 ?x97 (ite $x72 (concat (_ bv0 8) (_ bv0 1)) ?x110))))
 (let (($x50 (= ?x132 (_ bv455 9))))
 (and (and (not $x50) $x138) (= ?x139 3)))))))))))))))))))))))))
(check-sat)

